100 22152254
91 25 26 94 59 20 48 49 95 44 73 40 52 29 80 18 84 92 79 50 83 1 100 46 30 36 3 82 55 98 42 14 58 37 16 96 69 38 10 51 22 74 13 62 67 39 5 32 71 61 35 4 12 31 15 28 72 24 2 97 19 57 47 27 64 23 33 54 9 87 75 90 41 65 17 78 70 66 81 53 86 88 93 60 45 89 99 56 8 43 7 11 21 68 63 6 85 76 34 77 
